Traveling Salesman Problem/TSP_generados/Aleatorio1621103378_12.tsp
NAME: Aleatorio1621103378_12.tsp
COMMENT: Randomly generated scenario
TYPE: TSP
DIMENSION: 12
EDGE_WEIGHT_TYPE: ATT
NODE_COORD_SECTION
1 26.07 15.76
2 45.69 31.25
3 15.57 19.09
4 11.17 12.55
5 32.01 41.04
6 6.83 29.36
7 28.35 10.57
8 32.2 21.63
9 5.67 5.44
10 37.79 16.81
11 3.98 16.66
12 19.75 32.58
