Traveling Salesman Problem/TSP_generados/Aleatorio1621103378_12.opt.tour
NAME: Aleatorio1621103378_12.opt.tour
COMMENT: Optimal solution for Aleatorio1621103378_12 (138.21676638206887)
TYPE: TOUR
DIMENSION: 12
TOUR_SECTION
1 7 10 8 2 5 12 6 11 9 4 3
-1
EOF
